sat
(
(define-fun N () String "aa")
(define-fun E () String "")
(define-fun J () String "")
(define-fun H () String "aa")
(define-fun K () String "")
(define-fun F () String "")
(define-fun L () String "")
(define-fun Q () String "")
)
